Maximize
SUBJECT TO
d1s - d1x = 1
d1t - d1y = 1
d1Port0X - d1x = 0
d1Port0Y - d1y = -1 
d1Port1X - d1s = 0
d1Port1Y - d1t = 1 
d1x - d2s + 10000 d1Rd2 >= 1
d1y - d2t + 10000 d1Ld2 >= 1
d2x - d1s + 10000 d1Ud2 >= 1
d2y - d1t + 10000 d1Dd2 >= 1
d1Rd2 + d1Ld2 + d1Ud2 + d1Dd2 = 3
d2s - d2x = 2
d2t - d2y = 2
d2Port0X - d2x = 1
d2Port0Y - d2y = -1 
d2Port1X - d2s = -1
d2Port1Y - d2t = 1 
co1o2firstx0 - d1Port0X + 10000 co1o2Startd1Port0 >= 0
co1o2firstx0 - d1Port0X - 10000 co1o2Startd1Port0 <= 0
co1o2firsty0 - d1Port0Y + 10000 co1o2Startd1Port0 >= 0
co1o2firsty0 - d1Port0Y - 10000 co1o2Startd1Port0 <= 0
co1o2firstx0 - d1Port1X + 10000 co1o2Startd1Port1 >= 0
co1o2firstx0 - d1Port1X - 10000 co1o2Startd1Port1 <= 0
co1o2firsty0 - d1Port1Y + 10000 co1o2Startd1Port1 >= 0
co1o2firsty0 - d1Port1Y - 10000 co1o2Startd1Port1 <= 0
co1o2Startd1Port0 + co1o2Startd1Port1 = 1
co1o2endx1 - d2Port0X + 10000 co1o2Endd2Port0 >= 0
co1o2endx1 - d2Port0X - 10000 co1o2Endd2Port0 <= 0
co1o2endy1 - d2Port0Y + 10000 co1o2Endd2Port0 >= 0
co1o2endy1 - d2Port0Y - 10000 co1o2Endd2Port0 <= 0
co1o2endx1 - d2Port1X + 10000 co1o2Endd2Port1 >= 0
co1o2endx1 - d2Port1X - 10000 co1o2Endd2Port1 <= 0
co1o2endy1 - d2Port1Y + 10000 co1o2Endd2Port1 >= 0
co1o2endy1 - d2Port1Y - 10000 co1o2Endd2Port1 <= 0
co1o2Endd2Port0 + co1o2Endd2Port1 = 1
co1o2firstx0 - d1Port0X + 10000 co1o2Startd1Port0 >= 0
co1o2firstx0 - d1Port0X - 10000 co1o2Startd1Port0 <= 0
co1o2firsty0 - d1Port0Y + 10000 co1o2Startd1Port0 >= 0
co1o2firsty0 - d1Port0Y - 10000 co1o2Startd1Port0 <= 0
co1o2firstx0 - d1Port1X + 10000 co1o2Startd1Port1 >= 0
co1o2firstx0 - d1Port1X - 10000 co1o2Startd1Port1 <= 0
co1o2firsty0 - d1Port1Y + 10000 co1o2Startd1Port1 >= 0
co1o2firsty0 - d1Port1Y - 10000 co1o2Startd1Port1 <= 0
co1o2Startd1Port0 + co1o2Startd1Port1 = 1
co1o2firstx1 - co1o2storagex0 = 0
co1o2firsty1 - co1o2storagey0 = 0
co1o2storagex1 - co1o2endx0 = 0
co1o2storagey1 - co1o2endy0 = 0
co1o2firstx0 - co1o2firstx1 - 10000 co1o2firstx0Equalsco1o2firstx1 <= 0
co1o2firstx0 - co1o2firstx1 + 10000 co1o2firstx0Equalsco1o2firstx1 >= 0
co1o2firsty0 - co1o2firsty1 - 10000 co1o2firsty0Equalsco1o2firsty1 <= 0
co1o2firsty0 - co1o2firsty1 + 10000 co1o2firsty0Equalsco1o2firsty1 >= 0
co1o2firstx0Equalsco1o2firstx1 + co1o2firsty0Equalsco1o2firsty1 <= 1
co1o2storagex0 - co1o2storagex1 - 10000 co1o2storagex0Equalsco1o2storagex1 <= 0
co1o2storagex0 - co1o2storagex1 + 10000 co1o2storagex0Equalsco1o2storagex1 >= 0
co1o2storagey0 - co1o2storagey1 - 10000 co1o2storagey0Equalsco1o2storagey1 <= 0
co1o2storagey0 - co1o2storagey1 + 10000 co1o2storagey0Equalsco1o2storagey1 >= 0
co1o2storagex0Equalsco1o2storagex1 + co1o2storagey0Equalsco1o2storagey1 <= 1
co1o2endx0 - co1o2endx1 - 10000 co1o2endx0Equalsco1o2endx1 <= 0
co1o2endx0 - co1o2endx1 + 10000 co1o2endx0Equalsco1o2endx1 >= 0
co1o2endy0 - co1o2endy1 - 10000 co1o2endy0Equalsco1o2endy1 <= 0
co1o2endy0 - co1o2endy1 + 10000 co1o2endy0Equalsco1o2endy1 >= 0
co1o2endx0Equalsco1o2endx1 + co1o2endy0Equalsco1o2endy1 <= 1
co2o3firstx0 - d2Port0X + 10000 co2o3Startd2Port0 >= 0
co2o3firstx0 - d2Port0X - 10000 co2o3Startd2Port0 <= 0
co2o3firsty0 - d2Port0Y + 10000 co2o3Startd2Port0 >= 0
co2o3firsty0 - d2Port0Y - 10000 co2o3Startd2Port0 <= 0
co2o3firstx0 - d2Port1X + 10000 co2o3Startd2Port1 >= 0
co2o3firstx0 - d2Port1X - 10000 co2o3Startd2Port1 <= 0
co2o3firsty0 - d2Port1Y + 10000 co2o3Startd2Port1 >= 0
co2o3firsty0 - d2Port1Y - 10000 co2o3Startd2Port1 <= 0
co2o3Startd2Port0 + co2o3Startd2Port1 = 1
co2o3endx1 - d1Port0X + 10000 co2o3Endd1Port0 >= 0
co2o3endx1 - d1Port0X - 10000 co2o3Endd1Port0 <= 0
co2o3endy1 - d1Port0Y + 10000 co2o3Endd1Port0 >= 0
co2o3endy1 - d1Port0Y - 10000 co2o3Endd1Port0 <= 0
co2o3endx1 - d1Port1X + 10000 co2o3Endd1Port1 >= 0
co2o3endx1 - d1Port1X - 10000 co2o3Endd1Port1 <= 0
co2o3endy1 - d1Port1Y + 10000 co2o3Endd1Port1 >= 0
co2o3endy1 - d1Port1Y - 10000 co2o3Endd1Port1 <= 0
co2o3Endd1Port0 + co2o3Endd1Port1 = 1
co2o3firstx0 - d2Port0X + 10000 co2o3Startd2Port0 >= 0
co2o3firstx0 - d2Port0X - 10000 co2o3Startd2Port0 <= 0
co2o3firsty0 - d2Port0Y + 10000 co2o3Startd2Port0 >= 0
co2o3firsty0 - d2Port0Y - 10000 co2o3Startd2Port0 <= 0
co2o3firstx0 - d2Port1X + 10000 co2o3Startd2Port1 >= 0
co2o3firstx0 - d2Port1X - 10000 co2o3Startd2Port1 <= 0
co2o3firsty0 - d2Port1Y + 10000 co2o3Startd2Port1 >= 0
co2o3firsty0 - d2Port1Y - 10000 co2o3Startd2Port1 <= 0
co2o3Startd2Port0 + co2o3Startd2Port1 = 1
co2o3firstx1 - co2o3storagex0 = 0
co2o3firsty1 - co2o3storagey0 = 0
co2o3storagex1 - co2o3endx0 = 0
co2o3storagey1 - co2o3endy0 = 0
co2o3firstx0 - co2o3firstx1 - 10000 co2o3firstx0Equalsco2o3firstx1 <= 0
co2o3firstx0 - co2o3firstx1 + 10000 co2o3firstx0Equalsco2o3firstx1 >= 0
co2o3firsty0 - co2o3firsty1 - 10000 co2o3firsty0Equalsco2o3firsty1 <= 0
co2o3firsty0 - co2o3firsty1 + 10000 co2o3firsty0Equalsco2o3firsty1 >= 0
co2o3firstx0Equalsco2o3firstx1 + co2o3firsty0Equalsco2o3firsty1 <= 1
co2o3storagex0 - co2o3storagex1 - 10000 co2o3storagex0Equalsco2o3storagex1 <= 0
co2o3storagex0 - co2o3storagex1 + 10000 co2o3storagex0Equalsco2o3storagex1 >= 0
co2o3storagey0 - co2o3storagey1 - 10000 co2o3storagey0Equalsco2o3storagey1 <= 0
co2o3storagey0 - co2o3storagey1 + 10000 co2o3storagey0Equalsco2o3storagey1 >= 0
co2o3storagex0Equalsco2o3storagex1 + co2o3storagey0Equalsco2o3storagey1 <= 1
co2o3endx0 - co2o3endx1 - 10000 co2o3endx0Equalsco2o3endx1 <= 0
co2o3endx0 - co2o3endx1 + 10000 co2o3endx0Equalsco2o3endx1 >= 0
co2o3endy0 - co2o3endy1 - 10000 co2o3endy0Equalsco2o3endy1 <= 0
co2o3endy0 - co2o3endy1 + 10000 co2o3endy0Equalsco2o3endy1 >= 0
co2o3endx0Equalsco2o3endx1 + co2o3endy0Equalsco2o3endy1 <= 1

co2o3firstx1 - co2o3firstx1 - 10000 co2o3firstx1Lessco2o3firstx1 <= -1
co2o3firstx1 - co2o3firstx1 - 10000 co2o3firstx1Lessco2o3firstx1 >= -10000
co2o3firstx1 - co2o3firstx1 + 10000 co2o3firstx1Biggerco2o3firstx1 >= 1
co2o3firstx1 - co2o3firstx1 - 10000 co2o3firstx1Biggerco2o3firstx1 <= -10000
co2o3firsty1 - co2o3firsty1 - 10000 co2o3firsty1Lessco2o3firsty1 <= -1
co2o3firsty1 - co2o3firsty1 - 10000 co2o3firsty1Lessco2o3firsty1 >= -10000
co2o3firsty1 - co2o3firsty1 + 10000 co2o3firsty1Biggerco2o3firsty1 >= 1
co2o3firsty1 - co2o3firsty1 - 10000 co2o3firsty1Biggerco2o3firsty1 <= -10000
co2o3firsty0 - co2o3firsty1 - 10000 co2o3firsty0Lessco2o3firsty1 <= -1
co2o3firsty0 - co2o3firsty1 + 10000 co2o3firsty0Biggerco2o3firsty1 >= 1
co2o3firstx0 - co2o3firstx1 + 10000 co2o3firstx0BiggerEqualco2o3firstx1 >= 0
co2o3firstx1 - co2o3storagex1 - 10000 co2o3firstx1Equalco2o3storagex1 <= 0
co2o3firstx1 - co2o3storagex1 + 10000 co2o3firstx1Equalco2o3storagex1 >= 0
co2o3firsty1 - co2o3storagey1 - 10000 co2o3firsty1Equalco2o3storagey1 <= 0
co2o3firsty1 - co2o3storagey1 + 10000 co2o3firsty1Equalco2o3storagey1 >= 0
co2o3firstx1 - co2o3storagex1 - 10000 co2o3firstx1Lessco2o3storagex1 <= -1
co2o3firstx1Lessco2o3firstx1 + co2o3firstx1Biggerco2o3firstx1 + co2o3firsty1Lessco2o3firsty1 + co2o3firsty1Biggerco2o3firsty1 + co2o3firsty0Lessco2o3firsty1 + co2o3firsty0Biggerco2o3firsty1 + co2o3firstx0BiggerEqualco2o3firstx1 + co2o3firstx1Equalco2o3storagex1 + co2o3firsty1Equalco2o3storagey1 <= 8
co2o3firstx1Lessco2o3firstx1 + co2o3firstx1Biggerco2o3firstx1 + co2o3firsty1Lessco2o3firsty1 + co2o3firsty1Biggerco2o3firsty1 + co2o3firsty0Lessco2o3firsty1 + co2o3firsty0Biggerco2o3firsty1 + co2o3firstx0BiggerEqualco2o3firstx1 + co2o3firstx1Equalco2o3storagex1 + co2o3firstx1Lessco2o3storagex1 <= 8
co2o3FirstSeg0Connectco2o3StorageSeg0 + co2o3firstx1Lessco2o3firstx1 + co2o3firstx1Biggerco2o3firstx1 + co2o3firsty1Lessco2o3firsty1 + co2o3firsty1Biggerco2o3firsty1 <= 4
co2o3FirstSeg0Connectco2o3StorageSeg0 + co2o3firstx1Lessco2o3firstx1 >= 1
co2o3FirstSeg0Connectco2o3StorageSeg0 + co2o3firstx1Biggerco2o3firstx1 >= 1
co2o3FirstSeg0Connectco2o3StorageSeg0 + co2o3firsty1Lessco2o3firsty1 >= 1
co2o3FirstSeg0Connectco2o3StorageSeg0 + co2o3firsty1Biggerco2o3firsty1 >= 1
co2o3firstx0 - co2o3firstx1 - 10000 co2o3firstx0LessEqualco2o3firstx1 <= 0
co2o3firstx1 - co2o3storagex1 + 10000 co2o3firstx1Biggerco2o3storagex1 >= 1
co2o3firstx1Lessco2o3firstx1 + co2o3firstx1Biggerco2o3firstx1 + co2o3firsty1Lessco2o3firsty1 + co2o3firsty1Biggerco2o3firsty1 + co2o3firsty0Lessco2o3firsty1 + co2o3firsty0Biggerco2o3firsty1 + co2o3firstx0LessEqualco2o3firstx1 + co2o3firstx1Equalco2o3storagex1 + co2o3firsty1Equalco2o3storagey1 <= 8
co2o3firstx1Lessco2o3firstx1 + co2o3firstx1Biggerco2o3firstx1 + co2o3firsty1Lessco2o3firsty1 + co2o3firsty1Biggerco2o3firsty1 + co2o3firsty0Lessco2o3firsty1 + co2o3firsty0Biggerco2o3firsty1 + co2o3firstx0LessEqualco2o3firstx1 + co2o3firstx1Equalco2o3storagex1 + co2o3firstx1Biggerco2o3storagex1 <= 8
co2o3firstx0 - co2o3firstx1 + 10000 co2o3firstx0Biggerco2o3firstx1 >= 1
co2o3firstx0 - co2o3firstx1 - 10000 co2o3firstx0Lessco2o3firstx1 <= -1
co2o3firsty0 - co2o3firsty1 + 10000 co2o3firsty0BiggerEqualco2o3firsty1 >= 0
co2o3firsty1 - co2o3storagey1 - 10000 co2o3firsty1Lessco2o3storagey1 <= -1
co2o3firstx1Lessco2o3firstx1 + co2o3firstx1Biggerco2o3firstx1 + co2o3firsty1Lessco2o3firsty1 + co2o3firsty1Biggerco2o3firsty1 + co2o3firstx0Biggerco2o3firstx1 + co2o3firstx0Lessco2o3firstx1 + co2o3firsty0BiggerEqualco2o3firsty1 + co2o3firsty1Equalco2o3storagey1 + co2o3firstx1Equalco2o3storagex1 <= 8
co2o3firstx1Lessco2o3firstx1 + co2o3firstx1Biggerco2o3firstx1 + co2o3firsty1Lessco2o3firsty1 + co2o3firsty1Biggerco2o3firsty1 + co2o3firstx0Biggerco2o3firstx1 + co2o3firstx0Lessco2o3firstx1 + co2o3firsty0BiggerEqualco2o3firsty1 + co2o3firsty1Equalco2o3storagey1 + co2o3firsty1Lessco2o3storagey1 <= 8
co2o3firsty0 - co2o3firsty1 - 10000 co2o3firsty0LessEqualco2o3firsty1 <= 0
co2o3firsty1 - co2o3storagey1 + 10000 co2o3firsty1Lessco2o3storagey1 >= 1
co2o3firstx1Lessco2o3firstx1 + co2o3firstx1Biggerco2o3firstx1 + co2o3firsty1Lessco2o3firsty1 + co2o3firsty1Biggerco2o3firsty1 + co2o3firstx0Biggerco2o3firstx1 + co2o3firstx0Lessco2o3firstx1 + co2o3firsty0LessEqualco2o3firsty1 + co2o3firsty1Equalco2o3storagey1 + co2o3firstx1Equalco2o3storagex1 <= 8
co2o3firstx1Lessco2o3firstx1 + co2o3firstx1Biggerco2o3firstx1 + co2o3firsty1Lessco2o3firsty1 + co2o3firsty1Biggerco2o3firsty1 + co2o3firstx0Biggerco2o3firstx1 + co2o3firstx0Lessco2o3firstx1 + co2o3firsty0LessEqualco2o3firsty1 + co2o3firsty1Equalco2o3storagey1 + co2o3firsty1Biggerco2o3storagey1 <= 8
co2o3firsty0 - co2o3firsty1 + 10000 co2o3StorageSeg0Upco2o3FirstSeg0 >= 1
co2o3firsty0 - co2o3storagey1 + 10000 co2o3StorageSeg0Upco2o3FirstSeg0 >= 1
co2o3firsty1 - co2o3firsty1 + 10000 co2o3StorageSeg0Upco2o3FirstSeg0 >= 1
co2o3firsty1 - co2o3storagey1 + 10000 co2o3StorageSeg0Upco2o3FirstSeg0 >= 1
co2o3firsty0 - co2o3firsty1 - 10000 co2o3StorageSeg0Downco2o3FirstSeg0 <= -1
co2o3firsty0 - co2o3storagey1 - 10000 co2o3StorageSeg0Downco2o3FirstSeg0 <= -1
co2o3firsty1 - co2o3firsty1 - 10000 co2o3StorageSeg0Downco2o3FirstSeg0 <= -1
co2o3firsty1 - co2o3storagey1 - 10000 co2o3StorageSeg0Downco2o3FirstSeg0 <= -1
co2o3firstx0 - co2o3firstx1 + 10000 co2o3StorageSeg0Rightco2o3FirstSeg0 >= 1
co2o3firstx0 - co2o3storagex1 + 10000 co2o3StorageSeg0Rightco2o3FirstSeg0 >= 1
co2o3firstx1 - co2o3firstx1 + 10000 co2o3StorageSeg0Rightco2o3FirstSeg0 >= 1
co2o3firstx1 - co2o3storagex1 + 10000 co2o3StorageSeg0Rightco2o3FirstSeg0 >= 1
co2o3firstx0 - co2o3firstx1 - 10000 co2o3StorageSeg0Leftco2o3FirstSeg0 <= -1
co2o3firstx0 - co2o3storagex1 - 10000 co2o3StorageSeg0Leftco2o3FirstSeg0 <= -1
co2o3firstx1 - co2o3firstx1 - 10000 co2o3StorageSeg0Leftco2o3FirstSeg0 <= -1
co2o3firstx1 - co2o3storagex1 - 10000 co2o3StorageSeg0Leftco2o3FirstSeg0 <= -1
co2o3FirstSeg0Connectco2o3StorageSeg0 + co2o3StorageSeg0Upco2o3FirstSeg0 + co2o3StorageSeg0Downco2o3FirstSeg0 + co2o3StorageSeg0Leftco2o3FirstSeg0 + co2o3StorageSeg0Rightco2o3FirstSeg0 <= 4
co2o3firstx1 - co2o3storagex1 - 10000 co2o3firstx1Lessco2o3storagex1 <= -1
co2o3firstx1 - co2o3storagex1 - 10000 co2o3firstx1Lessco2o3storagex1 >= -10000
co2o3firstx1 - co2o3storagex1 + 10000 co2o3firstx1Biggerco2o3storagex1 >= 1
co2o3firstx1 - co2o3storagex1 - 10000 co2o3firstx1Biggerco2o3storagex1 <= -10000
co2o3firsty1 - co2o3storagey1 - 10000 co2o3firsty1Lessco2o3storagey1 <= -1
co2o3firsty1 - co2o3storagey1 - 10000 co2o3firsty1Lessco2o3storagey1 >= -10000
co2o3firsty1 - co2o3storagey1 + 10000 co2o3firsty1Biggerco2o3storagey1 >= 1
co2o3firsty1 - co2o3storagey1 - 10000 co2o3firsty1Biggerco2o3storagey1 <= -10000
co2o3firsty0 - co2o3firsty1 - 10000 co2o3firsty0Lessco2o3firsty1 <= -1
co2o3firsty0 - co2o3firsty1 + 10000 co2o3firsty0Biggerco2o3firsty1 >= 1
co2o3firstx0 - co2o3firstx1 + 10000 co2o3firstx0BiggerEqualco2o3firstx1 >= 0
co2o3storagex1 - co2o3endx1 - 10000 co2o3storagex1Equalco2o3endx1 <= 0
co2o3storagex1 - co2o3endx1 + 10000 co2o3storagex1Equalco2o3endx1 >= 0
co2o3storagey1 - co2o3endy1 - 10000 co2o3storagey1Equalco2o3endy1 <= 0
co2o3storagey1 - co2o3endy1 + 10000 co2o3storagey1Equalco2o3endy1 >= 0
co2o3storagex1 - co2o3endx1 - 10000 co2o3storagex1Lessco2o3endx1 <= -1
co2o3firstx1Lessco2o3storagex1 + co2o3firstx1Biggerco2o3storagex1 + co2o3firsty1Lessco2o3storagey1 + co2o3firsty1Biggerco2o3storagey1 + co2o3firsty0Lessco2o3firsty1 + co2o3firsty0Biggerco2o3firsty1 + co2o3firstx0BiggerEqualco2o3firstx1 + co2o3storagex1Equalco2o3endx1 + co2o3storagey1Equalco2o3endy1 <= 8
co2o3firstx1Lessco2o3storagex1 + co2o3firstx1Biggerco2o3storagex1 + co2o3firsty1Lessco2o3storagey1 + co2o3firsty1Biggerco2o3storagey1 + co2o3firsty0Lessco2o3firsty1 + co2o3firsty0Biggerco2o3firsty1 + co2o3firstx0BiggerEqualco2o3firstx1 + co2o3storagex1Equalco2o3endx1 + co2o3storagex1Lessco2o3endx1 <= 8
co2o3FirstSeg0Connectco2o3EndSeg0 + co2o3firstx1Lessco2o3storagex1 + co2o3firstx1Biggerco2o3storagex1 + co2o3firsty1Lessco2o3storagey1 + co2o3firsty1Biggerco2o3storagey1 <= 4
co2o3FirstSeg0Connectco2o3EndSeg0 + co2o3firstx1Lessco2o3storagex1 >= 1
co2o3FirstSeg0Connectco2o3EndSeg0 + co2o3firstx1Biggerco2o3storagex1 >= 1
co2o3FirstSeg0Connectco2o3EndSeg0 + co2o3firsty1Lessco2o3storagey1 >= 1
co2o3FirstSeg0Connectco2o3EndSeg0 + co2o3firsty1Biggerco2o3storagey1 >= 1
co2o3firstx0 - co2o3firstx1 - 10000 co2o3firstx0LessEqualco2o3firstx1 <= 0
co2o3storagex1 - co2o3endx1 + 10000 co2o3storagex1Biggerco2o3endx1 >= 1
co2o3firstx1Lessco2o3storagex1 + co2o3firstx1Biggerco2o3storagex1 + co2o3firsty1Lessco2o3storagey1 + co2o3firsty1Biggerco2o3storagey1 + co2o3firsty0Lessco2o3firsty1 + co2o3firsty0Biggerco2o3firsty1 + co2o3firstx0LessEqualco2o3firstx1 + co2o3storagex1Equalco2o3endx1 + co2o3storagey1Equalco2o3endy1 <= 8
co2o3firstx1Lessco2o3storagex1 + co2o3firstx1Biggerco2o3storagex1 + co2o3firsty1Lessco2o3storagey1 + co2o3firsty1Biggerco2o3storagey1 + co2o3firsty0Lessco2o3firsty1 + co2o3firsty0Biggerco2o3firsty1 + co2o3firstx0LessEqualco2o3firstx1 + co2o3storagex1Equalco2o3endx1 + co2o3storagex1Biggerco2o3endx1 <= 8
co2o3firstx0 - co2o3firstx1 + 10000 co2o3firstx0Biggerco2o3firstx1 >= 1
co2o3firstx0 - co2o3firstx1 - 10000 co2o3firstx0Lessco2o3firstx1 <= -1
co2o3firsty0 - co2o3firsty1 + 10000 co2o3firsty0BiggerEqualco2o3firsty1 >= 0
co2o3storagey1 - co2o3endy1 - 10000 co2o3storagey1Lessco2o3endy1 <= -1
co2o3firstx1Lessco2o3storagex1 + co2o3firstx1Biggerco2o3storagex1 + co2o3firsty1Lessco2o3storagey1 + co2o3firsty1Biggerco2o3storagey1 + co2o3firstx0Biggerco2o3firstx1 + co2o3firstx0Lessco2o3firstx1 + co2o3firsty0BiggerEqualco2o3firsty1 + co2o3storagey1Equalco2o3endy1 + co2o3storagex1Equalco2o3endx1 <= 8
co2o3firstx1Lessco2o3storagex1 + co2o3firstx1Biggerco2o3storagex1 + co2o3firsty1Lessco2o3storagey1 + co2o3firsty1Biggerco2o3storagey1 + co2o3firstx0Biggerco2o3firstx1 + co2o3firstx0Lessco2o3firstx1 + co2o3firsty0BiggerEqualco2o3firsty1 + co2o3storagey1Equalco2o3endy1 + co2o3storagey1Lessco2o3endy1 <= 8
co2o3firsty0 - co2o3firsty1 - 10000 co2o3firsty0LessEqualco2o3firsty1 <= 0
co2o3storagey1 - co2o3endy1 + 10000 co2o3storagey1Lessco2o3endy1 >= 1
co2o3firstx1Lessco2o3storagex1 + co2o3firstx1Biggerco2o3storagex1 + co2o3firsty1Lessco2o3storagey1 + co2o3firsty1Biggerco2o3storagey1 + co2o3firstx0Biggerco2o3firstx1 + co2o3firstx0Lessco2o3firstx1 + co2o3firsty0LessEqualco2o3firsty1 + co2o3storagey1Equalco2o3endy1 + co2o3storagex1Equalco2o3endx1 <= 8
co2o3firstx1Lessco2o3storagex1 + co2o3firstx1Biggerco2o3storagex1 + co2o3firsty1Lessco2o3storagey1 + co2o3firsty1Biggerco2o3storagey1 + co2o3firstx0Biggerco2o3firstx1 + co2o3firstx0Lessco2o3firstx1 + co2o3firsty0LessEqualco2o3firsty1 + co2o3storagey1Equalco2o3endy1 + co2o3storagey1Biggerco2o3endy1 <= 8
co2o3firsty0 - co2o3storagey1 + 10000 co2o3EndSeg0Upco2o3FirstSeg0 >= 1
co2o3firsty0 - co2o3endy1 + 10000 co2o3EndSeg0Upco2o3FirstSeg0 >= 1
co2o3firsty1 - co2o3storagey1 + 10000 co2o3EndSeg0Upco2o3FirstSeg0 >= 1
co2o3firsty1 - co2o3endy1 + 10000 co2o3EndSeg0Upco2o3FirstSeg0 >= 1
co2o3firsty0 - co2o3storagey1 - 10000 co2o3EndSeg0Downco2o3FirstSeg0 <= -1
co2o3firsty0 - co2o3endy1 - 10000 co2o3EndSeg0Downco2o3FirstSeg0 <= -1
co2o3firsty1 - co2o3storagey1 - 10000 co2o3EndSeg0Downco2o3FirstSeg0 <= -1
co2o3firsty1 - co2o3endy1 - 10000 co2o3EndSeg0Downco2o3FirstSeg0 <= -1
co2o3firstx0 - co2o3storagex1 + 10000 co2o3EndSeg0Rightco2o3FirstSeg0 >= 1
co2o3firstx0 - co2o3endx1 + 10000 co2o3EndSeg0Rightco2o3FirstSeg0 >= 1
co2o3firstx1 - co2o3storagex1 + 10000 co2o3EndSeg0Rightco2o3FirstSeg0 >= 1
co2o3firstx1 - co2o3endx1 + 10000 co2o3EndSeg0Rightco2o3FirstSeg0 >= 1
co2o3firstx0 - co2o3storagex1 - 10000 co2o3EndSeg0Leftco2o3FirstSeg0 <= -1
co2o3firstx0 - co2o3endx1 - 10000 co2o3EndSeg0Leftco2o3FirstSeg0 <= -1
co2o3firstx1 - co2o3storagex1 - 10000 co2o3EndSeg0Leftco2o3FirstSeg0 <= -1
co2o3firstx1 - co2o3endx1 - 10000 co2o3EndSeg0Leftco2o3FirstSeg0 <= -1
co2o3FirstSeg0Connectco2o3EndSeg0 + co2o3EndSeg0Upco2o3FirstSeg0 + co2o3EndSeg0Downco2o3FirstSeg0 + co2o3EndSeg0Leftco2o3FirstSeg0 + co2o3EndSeg0Rightco2o3FirstSeg0 <= 4
co2o3storagex1 - co2o3storagex1 - 10000 co2o3storagex1Lessco2o3storagex1 <= -1
co2o3storagex1 - co2o3storagex1 - 10000 co2o3storagex1Lessco2o3storagex1 >= -10000
co2o3storagex1 - co2o3storagex1 + 10000 co2o3storagex1Biggerco2o3storagex1 >= 1
co2o3storagex1 - co2o3storagex1 - 10000 co2o3storagex1Biggerco2o3storagex1 <= -10000
co2o3storagey1 - co2o3storagey1 - 10000 co2o3storagey1Lessco2o3storagey1 <= -1
co2o3storagey1 - co2o3storagey1 - 10000 co2o3storagey1Lessco2o3storagey1 >= -10000
co2o3storagey1 - co2o3storagey1 + 10000 co2o3storagey1Biggerco2o3storagey1 >= 1
co2o3storagey1 - co2o3storagey1 - 10000 co2o3storagey1Biggerco2o3storagey1 <= -10000
co2o3firsty1 - co2o3storagey1 - 10000 co2o3firsty1Lessco2o3storagey1 <= -1
co2o3firsty1 - co2o3storagey1 + 10000 co2o3firsty1Biggerco2o3storagey1 >= 1
co2o3firstx1 - co2o3storagex1 + 10000 co2o3firstx1BiggerEqualco2o3storagex1 >= 0
co2o3storagex1 - co2o3endx1 - 10000 co2o3storagex1Equalco2o3endx1 <= 0
co2o3storagex1 - co2o3endx1 + 10000 co2o3storagex1Equalco2o3endx1 >= 0
co2o3storagey1 - co2o3endy1 - 10000 co2o3storagey1Equalco2o3endy1 <= 0
co2o3storagey1 - co2o3endy1 + 10000 co2o3storagey1Equalco2o3endy1 >= 0
co2o3storagex1 - co2o3endx1 - 10000 co2o3storagex1Lessco2o3endx1 <= -1
co2o3storagex1Lessco2o3storagex1 + co2o3storagex1Biggerco2o3storagex1 + co2o3storagey1Lessco2o3storagey1 + co2o3storagey1Biggerco2o3storagey1 + co2o3firsty1Lessco2o3storagey1 + co2o3firsty1Biggerco2o3storagey1 + co2o3firstx1BiggerEqualco2o3storagex1 + co2o3storagex1Equalco2o3endx1 + co2o3storagey1Equalco2o3endy1 <= 8
co2o3storagex1Lessco2o3storagex1 + co2o3storagex1Biggerco2o3storagex1 + co2o3storagey1Lessco2o3storagey1 + co2o3storagey1Biggerco2o3storagey1 + co2o3firsty1Lessco2o3storagey1 + co2o3firsty1Biggerco2o3storagey1 + co2o3firstx1BiggerEqualco2o3storagex1 + co2o3storagex1Equalco2o3endx1 + co2o3storagex1Lessco2o3endx1 <= 8
co2o3StorageSeg0Connectco2o3EndSeg0 + co2o3storagex1Lessco2o3storagex1 + co2o3storagex1Biggerco2o3storagex1 + co2o3storagey1Lessco2o3storagey1 + co2o3storagey1Biggerco2o3storagey1 <= 4
co2o3StorageSeg0Connectco2o3EndSeg0 + co2o3storagex1Lessco2o3storagex1 >= 1
co2o3StorageSeg0Connectco2o3EndSeg0 + co2o3storagex1Biggerco2o3storagex1 >= 1
co2o3StorageSeg0Connectco2o3EndSeg0 + co2o3storagey1Lessco2o3storagey1 >= 1
co2o3StorageSeg0Connectco2o3EndSeg0 + co2o3storagey1Biggerco2o3storagey1 >= 1
co2o3firstx1 - co2o3storagex1 - 10000 co2o3firstx1LessEqualco2o3storagex1 <= 0
co2o3storagex1 - co2o3endx1 + 10000 co2o3storagex1Biggerco2o3endx1 >= 1
co2o3storagex1Lessco2o3storagex1 + co2o3storagex1Biggerco2o3storagex1 + co2o3storagey1Lessco2o3storagey1 + co2o3storagey1Biggerco2o3storagey1 + co2o3firsty1Lessco2o3storagey1 + co2o3firsty1Biggerco2o3storagey1 + co2o3firstx1LessEqualco2o3storagex1 + co2o3storagex1Equalco2o3endx1 + co2o3storagey1Equalco2o3endy1 <= 8
co2o3storagex1Lessco2o3storagex1 + co2o3storagex1Biggerco2o3storagex1 + co2o3storagey1Lessco2o3storagey1 + co2o3storagey1Biggerco2o3storagey1 + co2o3firsty1Lessco2o3storagey1 + co2o3firsty1Biggerco2o3storagey1 + co2o3firstx1LessEqualco2o3storagex1 + co2o3storagex1Equalco2o3endx1 + co2o3storagex1Biggerco2o3endx1 <= 8
co2o3firstx1 - co2o3storagex1 + 10000 co2o3firstx1Biggerco2o3storagex1 >= 1
co2o3firstx1 - co2o3storagex1 - 10000 co2o3firstx1Lessco2o3storagex1 <= -1
co2o3firsty1 - co2o3storagey1 + 10000 co2o3firsty1BiggerEqualco2o3storagey1 >= 0
co2o3storagey1 - co2o3endy1 - 10000 co2o3storagey1Lessco2o3endy1 <= -1
co2o3storagex1Lessco2o3storagex1 + co2o3storagex1Biggerco2o3storagex1 + co2o3storagey1Lessco2o3storagey1 + co2o3storagey1Biggerco2o3storagey1 + co2o3firstx1Biggerco2o3storagex1 + co2o3firstx1Lessco2o3storagex1 + co2o3firsty1BiggerEqualco2o3storagey1 + co2o3storagey1Equalco2o3endy1 + co2o3storagex1Equalco2o3endx1 <= 8
co2o3storagex1Lessco2o3storagex1 + co2o3storagex1Biggerco2o3storagex1 + co2o3storagey1Lessco2o3storagey1 + co2o3storagey1Biggerco2o3storagey1 + co2o3firstx1Biggerco2o3storagex1 + co2o3firstx1Lessco2o3storagex1 + co2o3firsty1BiggerEqualco2o3storagey1 + co2o3storagey1Equalco2o3endy1 + co2o3storagey1Lessco2o3endy1 <= 8
co2o3firsty1 - co2o3storagey1 - 10000 co2o3firsty1LessEqualco2o3storagey1 <= 0
co2o3storagey1 - co2o3endy1 + 10000 co2o3storagey1Lessco2o3endy1 >= 1
co2o3storagex1Lessco2o3storagex1 + co2o3storagex1Biggerco2o3storagex1 + co2o3storagey1Lessco2o3storagey1 + co2o3storagey1Biggerco2o3storagey1 + co2o3firstx1Biggerco2o3storagex1 + co2o3firstx1Lessco2o3storagex1 + co2o3firsty1LessEqualco2o3storagey1 + co2o3storagey1Equalco2o3endy1 + co2o3storagex1Equalco2o3endx1 <= 8
co2o3storagex1Lessco2o3storagex1 + co2o3storagex1Biggerco2o3storagex1 + co2o3storagey1Lessco2o3storagey1 + co2o3storagey1Biggerco2o3storagey1 + co2o3firstx1Biggerco2o3storagex1 + co2o3firstx1Lessco2o3storagex1 + co2o3firsty1LessEqualco2o3storagey1 + co2o3storagey1Equalco2o3endy1 + co2o3storagey1Biggerco2o3endy1 <= 8
co2o3firsty1 - co2o3storagey1 + 10000 co2o3EndSeg0Upco2o3StorageSeg0 >= 1
co2o3firsty1 - co2o3endy1 + 10000 co2o3EndSeg0Upco2o3StorageSeg0 >= 1
co2o3storagey1 - co2o3storagey1 + 10000 co2o3EndSeg0Upco2o3StorageSeg0 >= 1
co2o3storagey1 - co2o3endy1 + 10000 co2o3EndSeg0Upco2o3StorageSeg0 >= 1
co2o3firsty1 - co2o3storagey1 - 10000 co2o3EndSeg0Downco2o3StorageSeg0 <= -1
co2o3firsty1 - co2o3endy1 - 10000 co2o3EndSeg0Downco2o3StorageSeg0 <= -1
co2o3storagey1 - co2o3storagey1 - 10000 co2o3EndSeg0Downco2o3StorageSeg0 <= -1
co2o3storagey1 - co2o3endy1 - 10000 co2o3EndSeg0Downco2o3StorageSeg0 <= -1
co2o3firstx1 - co2o3storagex1 + 10000 co2o3EndSeg0Rightco2o3StorageSeg0 >= 1
co2o3firstx1 - co2o3endx1 + 10000 co2o3EndSeg0Rightco2o3StorageSeg0 >= 1
co2o3storagex1 - co2o3storagex1 + 10000 co2o3EndSeg0Rightco2o3StorageSeg0 >= 1
co2o3storagex1 - co2o3endx1 + 10000 co2o3EndSeg0Rightco2o3StorageSeg0 >= 1
co2o3firstx1 - co2o3storagex1 - 10000 co2o3EndSeg0Leftco2o3StorageSeg0 <= -1
co2o3firstx1 - co2o3endx1 - 10000 co2o3EndSeg0Leftco2o3StorageSeg0 <= -1
co2o3storagex1 - co2o3storagex1 - 10000 co2o3EndSeg0Leftco2o3StorageSeg0 <= -1
co2o3storagex1 - co2o3endx1 - 10000 co2o3EndSeg0Leftco2o3StorageSeg0 <= -1
co2o3StorageSeg0Connectco2o3EndSeg0 + co2o3EndSeg0Upco2o3StorageSeg0 + co2o3EndSeg0Downco2o3StorageSeg0 + co2o3EndSeg0Leftco2o3StorageSeg0 + co2o3EndSeg0Rightco2o3StorageSeg0 <= 4
co1o2firsty0 - d1t + 10000 co1o2FirstSeg0Upd1 >= 1
co1o2firsty1 - d1t + 10000 co1o2FirstSeg0Upd1 >= 1
co1o2firsty0 - d1y - 10000 co1o2FirstSeg0Downd1 <= -1
co1o2firsty1 - d1y - 10000 co1o2FirstSeg0Downd1 <= -1
co1o2firstx0 - d1x - 10000 co1o2FirstSeg0Leftd1 <= -1
co1o2firstx1 - d1x - 10000 co1o2FirstSeg0Leftd1 <= -1
co1o2firstx0 - d1s + 10000 co1o2FirstSeg0Rightd1 >= 1
co1o2firstx1 - d1s + 10000 co1o2FirstSeg0Rightd1 >= 1
co1o2FirstSeg0Upd1 + co1o2FirstSeg0Downd1 + co1o2FirstSeg0Leftd1 + co1o2FirstSeg0Rightd1 <= 3
co1o2firsty1 - d1t + 10000 co1o2StorageSeg0Upd1 >= 1
co1o2storagey1 - d1t + 10000 co1o2StorageSeg0Upd1 >= 1
co1o2firsty1 - d1y - 10000 co1o2StorageSeg0Downd1 <= -1
co1o2storagey1 - d1y - 10000 co1o2StorageSeg0Downd1 <= -1
co1o2firstx1 - d1x - 10000 co1o2StorageSeg0Leftd1 <= -1
co1o2storagex1 - d1x - 10000 co1o2StorageSeg0Leftd1 <= -1
co1o2firstx1 - d1s + 10000 co1o2StorageSeg0Rightd1 >= 1
co1o2storagex1 - d1s + 10000 co1o2StorageSeg0Rightd1 >= 1
co1o2StorageSeg0Upd1 + co1o2StorageSeg0Downd1 + co1o2StorageSeg0Leftd1 + co1o2StorageSeg0Rightd1 <= 3
co1o2storagey1 - d1t + 10000 co1o2EndSeg0Upd1 >= 1
co1o2endy1 - d1t + 10000 co1o2EndSeg0Upd1 >= 1
co1o2storagey1 - d1y - 10000 co1o2EndSeg0Downd1 <= -1
co1o2endy1 - d1y - 10000 co1o2EndSeg0Downd1 <= -1
co1o2storagex1 - d1x - 10000 co1o2EndSeg0Leftd1 <= -1
co1o2endx1 - d1x - 10000 co1o2EndSeg0Leftd1 <= -1
co1o2storagex1 - d1s + 10000 co1o2EndSeg0Rightd1 >= 1
co1o2endx1 - d1s + 10000 co1o2EndSeg0Rightd1 >= 1
co1o2EndSeg0Upd1 + co1o2EndSeg0Downd1 + co1o2EndSeg0Leftd1 + co1o2EndSeg0Rightd1 <= 3
co1o2firsty0 - d2t + 10000 co1o2FirstSeg0Upd2 >= 1
co1o2firsty1 - d2t + 10000 co1o2FirstSeg0Upd2 >= 1
co1o2firsty0 - d2y - 10000 co1o2FirstSeg0Downd2 <= -1
co1o2firsty1 - d2y - 10000 co1o2FirstSeg0Downd2 <= -1
co1o2firstx0 - d2x - 10000 co1o2FirstSeg0Leftd2 <= -1
co1o2firstx1 - d2x - 10000 co1o2FirstSeg0Leftd2 <= -1
co1o2firstx0 - d2s + 10000 co1o2FirstSeg0Rightd2 >= 1
co1o2firstx1 - d2s + 10000 co1o2FirstSeg0Rightd2 >= 1
co1o2FirstSeg0Upd2 + co1o2FirstSeg0Downd2 + co1o2FirstSeg0Leftd2 + co1o2FirstSeg0Rightd2 <= 3
co1o2firsty1 - d2t + 10000 co1o2StorageSeg0Upd2 >= 1
co1o2storagey1 - d2t + 10000 co1o2StorageSeg0Upd2 >= 1
co1o2firsty1 - d2y - 10000 co1o2StorageSeg0Downd2 <= -1
co1o2storagey1 - d2y - 10000 co1o2StorageSeg0Downd2 <= -1
co1o2firstx1 - d2x - 10000 co1o2StorageSeg0Leftd2 <= -1
co1o2storagex1 - d2x - 10000 co1o2StorageSeg0Leftd2 <= -1
co1o2firstx1 - d2s + 10000 co1o2StorageSeg0Rightd2 >= 1
co1o2storagex1 - d2s + 10000 co1o2StorageSeg0Rightd2 >= 1
co1o2StorageSeg0Upd2 + co1o2StorageSeg0Downd2 + co1o2StorageSeg0Leftd2 + co1o2StorageSeg0Rightd2 <= 3
co1o2storagey1 - d2t + 10000 co1o2EndSeg0Upd2 >= 1
co1o2endy1 - d2t + 10000 co1o2EndSeg0Upd2 >= 1
co1o2storagey1 - d2y - 10000 co1o2EndSeg0Downd2 <= -1
co1o2endy1 - d2y - 10000 co1o2EndSeg0Downd2 <= -1
co1o2storagex1 - d2x - 10000 co1o2EndSeg0Leftd2 <= -1
co1o2endx1 - d2x - 10000 co1o2EndSeg0Leftd2 <= -1
co1o2storagex1 - d2s + 10000 co1o2EndSeg0Rightd2 >= 1
co1o2endx1 - d2s + 10000 co1o2EndSeg0Rightd2 >= 1
co1o2EndSeg0Upd2 + co1o2EndSeg0Downd2 + co1o2EndSeg0Leftd2 + co1o2EndSeg0Rightd2 <= 3
co2o3firsty0 - d1t + 10000 co2o3FirstSeg0Upd1 >= 1
co2o3firsty1 - d1t + 10000 co2o3FirstSeg0Upd1 >= 1
co2o3firsty0 - d1y - 10000 co2o3FirstSeg0Downd1 <= -1
co2o3firsty1 - d1y - 10000 co2o3FirstSeg0Downd1 <= -1
co2o3firstx0 - d1x - 10000 co2o3FirstSeg0Leftd1 <= -1
co2o3firstx1 - d1x - 10000 co2o3FirstSeg0Leftd1 <= -1
co2o3firstx0 - d1s + 10000 co2o3FirstSeg0Rightd1 >= 1
co2o3firstx1 - d1s + 10000 co2o3FirstSeg0Rightd1 >= 1
co2o3FirstSeg0Upd1 + co2o3FirstSeg0Downd1 + co2o3FirstSeg0Leftd1 + co2o3FirstSeg0Rightd1 <= 3
co2o3firsty1 - d1t + 10000 co2o3StorageSeg0Upd1 >= 1
co2o3storagey1 - d1t + 10000 co2o3StorageSeg0Upd1 >= 1
co2o3firsty1 - d1y - 10000 co2o3StorageSeg0Downd1 <= -1
co2o3storagey1 - d1y - 10000 co2o3StorageSeg0Downd1 <= -1
co2o3firstx1 - d1x - 10000 co2o3StorageSeg0Leftd1 <= -1
co2o3storagex1 - d1x - 10000 co2o3StorageSeg0Leftd1 <= -1
co2o3firstx1 - d1s + 10000 co2o3StorageSeg0Rightd1 >= 1
co2o3storagex1 - d1s + 10000 co2o3StorageSeg0Rightd1 >= 1
co2o3StorageSeg0Upd1 + co2o3StorageSeg0Downd1 + co2o3StorageSeg0Leftd1 + co2o3StorageSeg0Rightd1 <= 3
co2o3storagey1 - d1t + 10000 co2o3EndSeg0Upd1 >= 1
co2o3endy1 - d1t + 10000 co2o3EndSeg0Upd1 >= 1
co2o3storagey1 - d1y - 10000 co2o3EndSeg0Downd1 <= -1
co2o3endy1 - d1y - 10000 co2o3EndSeg0Downd1 <= -1
co2o3storagex1 - d1x - 10000 co2o3EndSeg0Leftd1 <= -1
co2o3endx1 - d1x - 10000 co2o3EndSeg0Leftd1 <= -1
co2o3storagex1 - d1s + 10000 co2o3EndSeg0Rightd1 >= 1
co2o3endx1 - d1s + 10000 co2o3EndSeg0Rightd1 >= 1
co2o3EndSeg0Upd1 + co2o3EndSeg0Downd1 + co2o3EndSeg0Leftd1 + co2o3EndSeg0Rightd1 <= 3
co2o3firsty0 - d2t + 10000 co2o3FirstSeg0Upd2 >= 1
co2o3firsty1 - d2t + 10000 co2o3FirstSeg0Upd2 >= 1
co2o3firsty0 - d2y - 10000 co2o3FirstSeg0Downd2 <= -1
co2o3firsty1 - d2y - 10000 co2o3FirstSeg0Downd2 <= -1
co2o3firstx0 - d2x - 10000 co2o3FirstSeg0Leftd2 <= -1
co2o3firstx1 - d2x - 10000 co2o3FirstSeg0Leftd2 <= -1
co2o3firstx0 - d2s + 10000 co2o3FirstSeg0Rightd2 >= 1
co2o3firstx1 - d2s + 10000 co2o3FirstSeg0Rightd2 >= 1
co2o3FirstSeg0Upd2 + co2o3FirstSeg0Downd2 + co2o3FirstSeg0Leftd2 + co2o3FirstSeg0Rightd2 <= 3
co2o3firsty1 - d2t + 10000 co2o3StorageSeg0Upd2 >= 1
co2o3storagey1 - d2t + 10000 co2o3StorageSeg0Upd2 >= 1
co2o3firsty1 - d2y - 10000 co2o3StorageSeg0Downd2 <= -1
co2o3storagey1 - d2y - 10000 co2o3StorageSeg0Downd2 <= -1
co2o3firstx1 - d2x - 10000 co2o3StorageSeg0Leftd2 <= -1
co2o3storagex1 - d2x - 10000 co2o3StorageSeg0Leftd2 <= -1
co2o3firstx1 - d2s + 10000 co2o3StorageSeg0Rightd2 >= 1
co2o3storagex1 - d2s + 10000 co2o3StorageSeg0Rightd2 >= 1
co2o3StorageSeg0Upd2 + co2o3StorageSeg0Downd2 + co2o3StorageSeg0Leftd2 + co2o3StorageSeg0Rightd2 <= 3
co2o3storagey1 - d2t + 10000 co2o3EndSeg0Upd2 >= 1
co2o3endy1 - d2t + 10000 co2o3EndSeg0Upd2 >= 1
co2o3storagey1 - d2y - 10000 co2o3EndSeg0Downd2 <= -1
co2o3endy1 - d2y - 10000 co2o3EndSeg0Downd2 <= -1
co2o3storagex1 - d2x - 10000 co2o3EndSeg0Leftd2 <= -1
co2o3endx1 - d2x - 10000 co2o3EndSeg0Leftd2 <= -1
co2o3storagex1 - d2s + 10000 co2o3EndSeg0Rightd2 >= 1
co2o3endx1 - d2s + 10000 co2o3EndSeg0Rightd2 >= 1
co2o3EndSeg0Upd2 + co2o3EndSeg0Downd2 + co2o3EndSeg0Leftd2 + co2o3EndSeg0Rightd2 <= 3
co1o2storagex1 + co1o2storagey1 - co1o2firstx1 - co1o2firsty1 + 10000 co1o2Storev1RightUpv2 >= 1
co1o2storagex1 + co1o2storagey1 - co1o2firstx1 - co1o2firsty1 + 10000 co1o2Storev1RightUpv2 <= 9999
co2o3storagex1 + co2o3storagey1 - co2o3firstx1 - co2o3firsty1 + 10000 co2o3Storev1RightUpv2 >= 1
co2o3storagex1 + co2o3storagey1 - co2o3firstx1 - co2o3firsty1 + 10000 co2o3Storev1RightUpv2 <= 9999
co1o2firststart >= 10
co1o2firstend - co1o2storageend <= 0
co1o2firstend - co1o2firststart >= 1
co1o2storagestart - co1o2firststart = 0
co1o2storagestart - co1o2storageend <= 0
co1o2storageend - co1o2endend = 0
co1o2endstart - co1o2storagestart >= 0
co1o2endend <= 20
co1o2endend - co1o2endstart >= 1
co2o3firststart >= 30
co2o3firstend - co2o3storageend <= 0
co2o3firstend - co2o3firststart >= 1
co2o3storagestart - co2o3firststart = 0
co2o3storagestart - co2o3storageend <= 0
co2o3storageend - co2o3endend = 0
co2o3endstart - co2o3storagestart >= 0
co2o3endend <= 40
co2o3endend - co2o3endstart >= 1
 
Bounds
0 <= d1x <= 10
0 <= d1y <= 10
0 <= d1s <= 10
0 <= d1t <= 10
0 <= d2x <= 10
0 <= d2y <= 10
0 <= d2s <= 10
0 <= d2t <= 10
0 <= co1o2firstx0 <= 10
0 <= co1o2firsty0 <= 10
0 <= co1o2storagex0 <= 10
0 <= co1o2storagey0 <= 10
0 <= co1o2endx0 <= 10
0 <= co1o2endy0 <= 10
0 <= co1o2firstx1 <= 10
0 <= co1o2firsty1 <= 10
0 <= co1o2storagex1 <= 10
0 <= co1o2storagey1 <= 10
0 <= co1o2endx1 <= 10
0 <= co1o2endy1 <= 10
0 <= co2o3firstx0 <= 10
0 <= co2o3firsty0 <= 10
0 <= co2o3storagex0 <= 10
0 <= co2o3storagey0 <= 10
0 <= co2o3endx0 <= 10
0 <= co2o3endy0 <= 10
0 <= co2o3firstx1 <= 10
0 <= co2o3firsty1 <= 10
0 <= co2o3storagex1 <= 10
0 <= co2o3storagey1 <= 10
0 <= co2o3endx1 <= 10
0 <= co2o3endy1 <= 10
Binaries
d1Rd2
d1Ld2
d1Ud2
d1Dd2
co1o2Startd1Port0
co1o2Startd1Port1
co1o2Endd2Port0
co1o2Endd2Port1
co1o2firstx0Equalsco1o2firstx1
co1o2firsty0Equalsco1o2firsty1
co1o2storagex0Equalsco1o2storagex1
co1o2storagey0Equalsco1o2storagey1
co1o2endx0Equalsco1o2endx1
co1o2endy0Equalsco1o2endy1
co2o3Startd2Port0
co2o3Startd2Port1
co2o3Endd1Port0
co2o3Endd1Port1
co2o3firstx0Equalsco2o3firstx1
co2o3firsty0Equalsco2o3firsty1
co2o3storagex0Equalsco2o3storagex1
co2o3storagey0Equalsco2o3storagey1
co2o3endx0Equalsco2o3endx1
co2o3endy0Equalsco2o3endy1
co1o2FirstSeg0Connectco1o2StorageSeg0
co1o2firstx1Lessco1o2firstx1
co1o2firstx1Biggerco1o2firstx1
co1o2firsty1Lessco1o2firsty1
co1o2firsty1Biggerco1o2firsty1
co1o2firsty0Lessco1o2firsty1
co1o2firsty0Biggerco1o2firsty1
co1o2firstx0BiggerEqualco1o2firstx1
co1o2firstx1Equalco1o2storagex1
co1o2firsty1Equalco1o2storagey1
co1o2firstx1Lessco1o2storagex1
co1o2firstx0LessEqualco1o2firstx1
co1o2firstx1Biggerco1o2storagex1
co1o2firstx0Biggerco1o2firstx1
co1o2firstx0Lessco1o2firstx1
co1o2firsty0BiggerEqualco1o2firsty1
co1o2firsty1Lessco1o2storagey1
co1o2firsty0LessEqualco1o2firsty1
co1o2firsty1Biggerco1o2storagey1
co1o2StorageSeg0Upco1o2FirstSeg0
co1o2StorageSeg0Downco1o2FirstSeg0
co1o2StorageSeg0Leftco1o2FirstSeg0
co1o2StorageSeg0Rightco1o2FirstSeg0
co1o2FirstSeg0Connectco1o2EndSeg0
co1o2firstx1Lessco1o2storagex1
co1o2firstx1Biggerco1o2storagex1
co1o2firsty1Lessco1o2storagey1
co1o2firsty1Biggerco1o2storagey1
co1o2firsty0Lessco1o2firsty1
co1o2firsty0Biggerco1o2firsty1
co1o2firstx0BiggerEqualco1o2firstx1
co1o2storagex1Equalco1o2endx1
co1o2storagey1Equalco1o2endy1
co1o2storagex1Lessco1o2endx1
co1o2firstx0LessEqualco1o2firstx1
co1o2storagex1Biggerco1o2endx1
co1o2firstx0Biggerco1o2firstx1
co1o2firstx0Lessco1o2firstx1
co1o2firsty0BiggerEqualco1o2firsty1
co1o2storagey1Lessco1o2endy1
co1o2firsty0LessEqualco1o2firsty1
co1o2storagey1Biggerco1o2endy1
co1o2EndSeg0Upco1o2FirstSeg0
co1o2EndSeg0Downco1o2FirstSeg0
co1o2EndSeg0Leftco1o2FirstSeg0
co1o2EndSeg0Rightco1o2FirstSeg0
co1o2StorageSeg0Connectco1o2EndSeg0
co1o2storagex1Lessco1o2storagex1
co1o2storagex1Biggerco1o2storagex1
co1o2storagey1Lessco1o2storagey1
co1o2storagey1Biggerco1o2storagey1
co1o2firsty1Lessco1o2storagey1
co1o2firsty1Biggerco1o2storagey1
co1o2firstx1BiggerEqualco1o2storagex1
co1o2storagex1Equalco1o2endx1
co1o2storagey1Equalco1o2endy1
co1o2storagex1Lessco1o2endx1
co1o2firstx1LessEqualco1o2storagex1
co1o2storagex1Biggerco1o2endx1
co1o2firstx1Biggerco1o2storagex1
co1o2firstx1Lessco1o2storagex1
co1o2firsty1BiggerEqualco1o2storagey1
co1o2storagey1Lessco1o2endy1
co1o2firsty1LessEqualco1o2storagey1
co1o2storagey1Biggerco1o2endy1
co1o2EndSeg0Upco1o2StorageSeg0
co1o2EndSeg0Downco1o2StorageSeg0
co1o2EndSeg0Leftco1o2StorageSeg0
co1o2EndSeg0Rightco1o2StorageSeg0
co2o3FirstSeg0Connectco2o3StorageSeg0
co2o3firstx1Lessco2o3firstx1
co2o3firstx1Biggerco2o3firstx1
co2o3firsty1Lessco2o3firsty1
co2o3firsty1Biggerco2o3firsty1
co2o3firsty0Lessco2o3firsty1
co2o3firsty0Biggerco2o3firsty1
co2o3firstx0BiggerEqualco2o3firstx1
co2o3firstx1Equalco2o3storagex1
co2o3firsty1Equalco2o3storagey1
co2o3firstx1Lessco2o3storagex1
co2o3firstx0LessEqualco2o3firstx1
co2o3firstx1Biggerco2o3storagex1
co2o3firstx0Biggerco2o3firstx1
co2o3firstx0Lessco2o3firstx1
co2o3firsty0BiggerEqualco2o3firsty1
co2o3firsty1Lessco2o3storagey1
co2o3firsty0LessEqualco2o3firsty1
co2o3firsty1Biggerco2o3storagey1
co2o3StorageSeg0Upco2o3FirstSeg0
co2o3StorageSeg0Downco2o3FirstSeg0
co2o3StorageSeg0Leftco2o3FirstSeg0
co2o3StorageSeg0Rightco2o3FirstSeg0
co2o3FirstSeg0Connectco2o3EndSeg0
co2o3firstx1Lessco2o3storagex1
co2o3firstx1Biggerco2o3storagex1
co2o3firsty1Lessco2o3storagey1
co2o3firsty1Biggerco2o3storagey1
co2o3firsty0Lessco2o3firsty1
co2o3firsty0Biggerco2o3firsty1
co2o3firstx0BiggerEqualco2o3firstx1
co2o3storagex1Equalco2o3endx1
co2o3storagey1Equalco2o3endy1
co2o3storagex1Lessco2o3endx1
co2o3firstx0LessEqualco2o3firstx1
co2o3storagex1Biggerco2o3endx1
co2o3firstx0Biggerco2o3firstx1
co2o3firstx0Lessco2o3firstx1
co2o3firsty0BiggerEqualco2o3firsty1
co2o3storagey1Lessco2o3endy1
co2o3firsty0LessEqualco2o3firsty1
co2o3storagey1Biggerco2o3endy1
co2o3EndSeg0Upco2o3FirstSeg0
co2o3EndSeg0Downco2o3FirstSeg0
co2o3EndSeg0Leftco2o3FirstSeg0
co2o3EndSeg0Rightco2o3FirstSeg0
co2o3StorageSeg0Connectco2o3EndSeg0
co2o3storagex1Lessco2o3storagex1
co2o3storagex1Biggerco2o3storagex1
co2o3storagey1Lessco2o3storagey1
co2o3storagey1Biggerco2o3storagey1
co2o3firsty1Lessco2o3storagey1
co2o3firsty1Biggerco2o3storagey1
co2o3firstx1BiggerEqualco2o3storagex1
co2o3storagex1Equalco2o3endx1
co2o3storagey1Equalco2o3endy1
co2o3storagex1Lessco2o3endx1
co2o3firstx1LessEqualco2o3storagex1
co2o3storagex1Biggerco2o3endx1
co2o3firstx1Biggerco2o3storagex1
co2o3firstx1Lessco2o3storagex1
co2o3firsty1BiggerEqualco2o3storagey1
co2o3storagey1Lessco2o3endy1
co2o3firsty1LessEqualco2o3storagey1
co2o3storagey1Biggerco2o3endy1
co2o3EndSeg0Upco2o3StorageSeg0
co2o3EndSeg0Downco2o3StorageSeg0
co2o3EndSeg0Leftco2o3StorageSeg0
co2o3EndSeg0Rightco2o3StorageSeg0
co1o2FirstSeg0Upd1
co1o2FirstSeg0Downd1
co1o2FirstSeg0Leftd1
co1o2FirstSeg0Rightd1
co1o2StorageSeg0Upd1
co1o2StorageSeg0Downd1
co1o2StorageSeg0Leftd1
co1o2StorageSeg0Rightd1
co1o2EndSeg0Upd1
co1o2EndSeg0Downd1
co1o2EndSeg0Leftd1
co1o2EndSeg0Rightd1
co1o2FirstSeg0Upd2
co1o2FirstSeg0Downd2
co1o2FirstSeg0Leftd2
co1o2FirstSeg0Rightd2
co1o2StorageSeg0Upd2
co1o2StorageSeg0Downd2
co1o2StorageSeg0Leftd2
co1o2StorageSeg0Rightd2
co1o2EndSeg0Upd2
co1o2EndSeg0Downd2
co1o2EndSeg0Leftd2
co1o2EndSeg0Rightd2
co2o3FirstSeg0Upd1
co2o3FirstSeg0Downd1
co2o3FirstSeg0Leftd1
co2o3FirstSeg0Rightd1
co2o3StorageSeg0Upd1
co2o3StorageSeg0Downd1
co2o3StorageSeg0Leftd1
co2o3StorageSeg0Rightd1
co2o3EndSeg0Upd1
co2o3EndSeg0Downd1
co2o3EndSeg0Leftd1
co2o3EndSeg0Rightd1
co2o3FirstSeg0Upd2
co2o3FirstSeg0Downd2
co2o3FirstSeg0Leftd2
co2o3FirstSeg0Rightd2
co2o3StorageSeg0Upd2
co2o3StorageSeg0Downd2
co2o3StorageSeg0Leftd2
co2o3StorageSeg0Rightd2
co2o3EndSeg0Upd2
co2o3EndSeg0Downd2
co2o3EndSeg0Leftd2
co2o3EndSeg0Rightd2
co1o2Storev1RightUpv2
co2o3Storev1RightUpv2
Generals
d1x
d1y
d1s
d1t
d1Port0X
d1Port0Y
d2x
d2y
d2s
d2t
d2Port0X
d2Port0Y
d1seedX
d1seedY
d2seedX
d2seedY
co1o2firstx0
co1o2firsty0
co1o2storagex0
co1o2storagey0
co1o2endx0
co1o2endy0
co1o2firstx1
co1o2firsty1
co1o2storagex1
co1o2storagey1
co1o2endx1
co1o2endy1
co2o3firstx0
co2o3firsty0
co2o3storagex0
co2o3storagey0
co2o3endx0
co2o3endy0
co2o3firstx1
co2o3firsty1
co2o3storagex1
co2o3storagey1
co2o3endx1
co2o3endy1
Semi
co1o2firststart
co1o2firstend
co1o2storagestart
co1o2storageend
co1o2endstart
co1o2endend
co2o3firststart
co2o3firstend
co2o3storagestart
co2o3storageend
co2o3endstart
co2o3endend
